WARNING: for repeatability, setting FPU to use double precision
 -----------------------------------------------------------------------------------------------------------------------
|                                 manysat2.0    4 thread(s) on 8 core(s)                                                |
 -----------------------------------------------------------------------------------------------------------------------
 ===============================================[ Problem Statistics ]==================================================
|                                                                                                                       |
|  Number of cores:                 4                                                                                   |
|  Number of variables:        696413                                                                                   |
|  Number of clauses:         1038569                                                                                   |
|  Parse time:                   0.75 s                                                                                 |
|                                                                                                                       |
 ==============================================[ Search Statistics ]====================================================
|   Thread  | Conflicts |          ORIGINAL         |          LEARNT          |  exported  / imported      |  Progress |
|    (id)   |           |    Vars  Clauses Literals |    Limit  Clauses Lit/Cl |  (clauses by restart)      |           |
 =======================================================================================================================
|         0 |       100 |  214982   521807  1364811 |   191329      203      9 |        1999  -         103 | 69.130 %  |
|         3 |       100 |  206043   521807  1364811 |   380808      227     21 |           0  -         128 | 70.414 %  |
|         1 |       100 |  214982   521807  1364811 |   380808      235     18 |        1999  -         134 | 69.130 %  |
|         2 |       100 |  214982   521807  1364811 |   380808      291     82 |        5997  -         191 | 69.130 %  |
|         1 |       250 |  214982   521807  1364811 |   418889      415     18 |        1999  -         164 | 69.130 %  |
|         2 |       250 |  214982   521807  1364811 |   418889      441     59 |        5997  -         191 | 69.130 %  |
|         0 |       250 |  214982   521807  1364811 |   210462      409     14 |        1999  -         159 | 69.130 %  |
|         1 |       475 |  214982   521807  1364811 |   460778      640     19 |        1999  -         164 | 69.130 %  |
|         2 |       475 |  214982   521807  1364811 |   460778      666     44 |        5997  -         191 | 69.130 %  |
|         3 |       250 |  206043   501907  1309330 |   418889      422     17 |           0  -         176 | 70.414 %  |
|         1 |       812 |  214982   521807  1364811 |   506856      977     18 |        1999  -         164 | 69.130 %  |
|         0 |       475 |  214982   521807  1364811 |   231508      635     14 |        1999  -         160 | 69.130 %  |
|         1 |      1318 |  214982   521807  1364811 |   557541     1483     19 |        1999  -         164 | 69.130 %  |
|         2 |       812 |  214982   521807  1364811 |   506856     1004     35 |        5997  -         192 | 69.130 %  |
|         3 |       475 |  206043   501907  1309330 |   460778      648     16 |           0  -         177 | 70.414 %  |
|         1 |      2077 |  214982   521807  1364811 |   613296     2242     20 |        1999  -         164 | 69.130 %  |
|         2 |      1318 |  214982   521807  1364811 |   557541     1510     28 |        5997  -         192 | 69.130 %  |
|         0 |       812 |  214982   521807  1364811 |   254659      972     15 |        1999  -         160 | 69.130 %  |
|         0 |      1318 |  214982   521807  1364811 |   280125     1478     18 |        1999  -         160 | 69.130 %  |
|         3